20-32
p edge 20 32
e 1 3
e 1 6
e 1 11
e 1 14
e 1 15
e 2 11
e 2 12
e 2 16
e 3 5
e 3 13
e 3 14
e 4 5
e 4 13
e 5 16
e 5 19
e 6 8
e 6 20
e 7 13
e 8 14
e 8 15
e 9 15
e 9 16
e 9 18
e 10 11
e 10 12
e 10 17
e 11 20
e 12 17
e 12 20
e 13 14
e 14 19
e 15 20
